\* f2//Tbar *\
Minimize
Tbar: G_0 + G_1 + G_2 + G_3 + G_4 + G_5 + G_6 + G_7 + G_8 + G_9
Subject To
col_0: X_0_0 + X_1_0 + X_2_0 + X_3_0 + X_4_0 + X_5_0 + X_6_0 + X_7_0 + X_8_0
 + X_9_0 = 1
col_1: X_0_1 + X_1_1 + X_2_1 + X_3_1 + X_4_1 + X_5_1 + X_6_1 + X_7_1 + X_8_1
 + X_9_1 = 1
col_2: X_0_2 + X_1_2 + X_2_2 + X_3_2 + X_4_2 + X_5_2 + X_6_2 + X_7_2 + X_8_2
 + X_9_2 = 1
col_3: X_0_3 + X_1_3 + X_2_3 + X_3_3 + X_4_3 + X_5_3 + X_6_3 + X_7_3 + X_8_3
 + X_9_3 = 1
col_4: X_0_4 + X_1_4 + X_2_4 + X_3_4 + X_4_4 + X_5_4 + X_6_4 + X_7_4 + X_8_4
 + X_9_4 = 1
col_5: X_0_5 + X_1_5 + X_2_5 + X_3_5 + X_4_5 + X_5_5 + X_6_5 + X_7_5 + X_8_5
 + X_9_5 = 1
col_6: X_0_6 + X_1_6 + X_2_6 + X_3_6 + X_4_6 + X_5_6 + X_6_6 + X_7_6 + X_8_6
 + X_9_6 = 1
col_7: X_0_7 + X_1_7 + X_2_7 + X_3_7 + X_4_7 + X_5_7 + X_6_7 + X_7_7 + X_8_7
 + X_9_7 = 1
col_8: X_0_8 + X_1_8 + X_2_8 + X_3_8 + X_4_8 + X_5_8 + X_6_8 + X_7_8 + X_8_8
 + X_9_8 = 1
col_9: X_0_9 + X_1_9 + X_2_9 + X_3_9 + X_4_9 + X_5_9 + X_6_9 + X_7_9 + X_8_9
 + X_9_9 = 1
f10: - F1_0 + 41 X_0_0 + 56 X_0_1 + 96 X_0_2 + X_0_3 + 83 X_0_4 + 76 X_0_5
 + 36 X_0_6 + 4 X_0_7 + 49 X_0_8 + 88 X_0_9 = 0
f20: - F2_0 + 76 X_0_0 + 95 X_0_1 + 137 X_0_2 + 54 X_0_3 + 114 X_0_4
 + 151 X_0_5 + 124 X_0_6 + 59 X_0_7 + 133 X_0_8 + 90 X_0_9 = 0
m12_1: F1_1 - F2_1 + 35 X_1_0 + 39 X_1_1 + 41 X_1_2 + 53 X_1_3 + 31 X_1_4
 + 75 X_1_5 + 88 X_1_6 + 55 X_1_7 + 84 X_1_8 + 2 X_1_9 <= 0
m12_2: F1_2 - F2_2 + 35 X_2_0 + 39 X_2_1 + 41 X_2_2 + 53 X_2_3 + 31 X_2_4
 + 75 X_2_5 + 88 X_2_6 + 55 X_2_7 + 84 X_2_8 + 2 X_2_9 <= 0
m12_3: F1_3 - F2_3 + 35 X_3_0 + 39 X_3_1 + 41 X_3_2 + 53 X_3_3 + 31 X_3_4
 + 75 X_3_5 + 88 X_3_6 + 55 X_3_7 + 84 X_3_8 + 2 X_3_9 <= 0
m12_4: F1_4 - F2_4 + 35 X_4_0 + 39 X_4_1 + 41 X_4_2 + 53 X_4_3 + 31 X_4_4
 + 75 X_4_5 + 88 X_4_6 + 55 X_4_7 + 84 X_4_8 + 2 X_4_9 <= 0
m12_5: F1_5 - F2_5 + 35 X_5_0 + 39 X_5_1 + 41 X_5_2 + 53 X_5_3 + 31 X_5_4
 + 75 X_5_5 + 88 X_5_6 + 55 X_5_7 + 84 X_5_8 + 2 X_5_9 <= 0
m12_6: F1_6 - F2_6 + 35 X_6_0 + 39 X_6_1 + 41 X_6_2 + 53 X_6_3 + 31 X_6_4
 + 75 X_6_5 + 88 X_6_6 + 55 X_6_7 + 84 X_6_8 + 2 X_6_9 <= 0
m12_7: F1_7 - F2_7 + 35 X_7_0 + 39 X_7_1 + 41 X_7_2 + 53 X_7_3 + 31 X_7_4
 + 75 X_7_5 + 88 X_7_6 + 55 X_7_7 + 84 X_7_8 + 2 X_7_9 <= 0
m12_8: F1_8 - F2_8 + 35 X_8_0 + 39 X_8_1 + 41 X_8_2 + 53 X_8_3 + 31 X_8_4
 + 75 X_8_5 + 88 X_8_6 + 55 X_8_7 + 84 X_8_8 + 2 X_8_9 <= 0
m12_9: F1_9 - F2_9 + 35 X_9_0 + 39 X_9_1 + 41 X_9_2 + 53 X_9_3 + 31 X_9_4
 + 75 X_9_5 + 88 X_9_6 + 55 X_9_7 + 84 X_9_8 + 2 X_9_9 <= 0
m1_1: F1_0 - F1_1 + 41 X_1_0 + 56 X_1_1 + 96 X_1_2 + X_1_3 + 83 X_1_4
 + 76 X_1_5 + 36 X_1_6 + 4 X_1_7 + 49 X_1_8 + 88 X_1_9 <= 0
m1_2: F1_1 - F1_2 + 41 X_2_0 + 56 X_2_1 + 96 X_2_2 + X_2_3 + 83 X_2_4
 + 76 X_2_5 + 36 X_2_6 + 4 X_2_7 + 49 X_2_8 + 88 X_2_9 <= 0
m1_3: F1_2 - F1_3 + 41 X_3_0 + 56 X_3_1 + 96 X_3_2 + X_3_3 + 83 X_3_4
 + 76 X_3_5 + 36 X_3_6 + 4 X_3_7 + 49 X_3_8 + 88 X_3_9 <= 0
m1_4: F1_3 - F1_4 + 41 X_4_0 + 56 X_4_1 + 96 X_4_2 + X_4_3 + 83 X_4_4
 + 76 X_4_5 + 36 X_4_6 + 4 X_4_7 + 49 X_4_8 + 88 X_4_9 <= 0
m1_5: F1_4 - F1_5 + 41 X_5_0 + 56 X_5_1 + 96 X_5_2 + X_5_3 + 83 X_5_4
 + 76 X_5_5 + 36 X_5_6 + 4 X_5_7 + 49 X_5_8 + 88 X_5_9 <= 0
m1_6: F1_5 - F1_6 + 41 X_6_0 + 56 X_6_1 + 96 X_6_2 + X_6_3 + 83 X_6_4
 + 76 X_6_5 + 36 X_6_6 + 4 X_6_7 + 49 X_6_8 + 88 X_6_9 <= 0
m1_7: F1_6 - F1_7 + 41 X_7_0 + 56 X_7_1 + 96 X_7_2 + X_7_3 + 83 X_7_4
 + 76 X_7_5 + 36 X_7_6 + 4 X_7_7 + 49 X_7_8 + 88 X_7_9 <= 0
m1_8: F1_7 - F1_8 + 41 X_8_0 + 56 X_8_1 + 96 X_8_2 + X_8_3 + 83 X_8_4
 + 76 X_8_5 + 36 X_8_6 + 4 X_8_7 + 49 X_8_8 + 88 X_8_9 <= 0
m1_9: F1_8 - F1_9 + 41 X_9_0 + 56 X_9_1 + 96 X_9_2 + X_9_3 + 83 X_9_4
 + 76 X_9_5 + 36 X_9_6 + 4 X_9_7 + 49 X_9_8 + 88 X_9_9 <= 0
m2_1: F2_0 - F2_1 + 35 X_1_0 + 39 X_1_1 + 41 X_1_2 + 53 X_1_3 + 31 X_1_4
 + 75 X_1_5 + 88 X_1_6 + 55 X_1_7 + 84 X_1_8 + 2 X_1_9 <= 0
m2_2: F2_1 - F2_2 + 35 X_2_0 + 39 X_2_1 + 41 X_2_2 + 53 X_2_3 + 31 X_2_4
 + 75 X_2_5 + 88 X_2_6 + 55 X_2_7 + 84 X_2_8 + 2 X_2_9 <= 0
m2_3: F2_2 - F2_3 + 35 X_3_0 + 39 X_3_1 + 41 X_3_2 + 53 X_3_3 + 31 X_3_4
 + 75 X_3_5 + 88 X_3_6 + 55 X_3_7 + 84 X_3_8 + 2 X_3_9 <= 0
m2_4: F2_3 - F2_4 + 35 X_4_0 + 39 X_4_1 + 41 X_4_2 + 53 X_4_3 + 31 X_4_4
 + 75 X_4_5 + 88 X_4_6 + 55 X_4_7 + 84 X_4_8 + 2 X_4_9 <= 0
m2_5: F2_4 - F2_5 + 35 X_5_0 + 39 X_5_1 + 41 X_5_2 + 53 X_5_3 + 31 X_5_4
 + 75 X_5_5 + 88 X_5_6 + 55 X_5_7 + 84 X_5_8 + 2 X_5_9 <= 0
m2_6: F2_5 - F2_6 + 35 X_6_0 + 39 X_6_1 + 41 X_6_2 + 53 X_6_3 + 31 X_6_4
 + 75 X_6_5 + 88 X_6_6 + 55 X_6_7 + 84 X_6_8 + 2 X_6_9 <= 0
m2_7: F2_6 - F2_7 + 35 X_7_0 + 39 X_7_1 + 41 X_7_2 + 53 X_7_3 + 31 X_7_4
 + 75 X_7_5 + 88 X_7_6 + 55 X_7_7 + 84 X_7_8 + 2 X_7_9 <= 0
m2_8: F2_7 - F2_8 + 35 X_8_0 + 39 X_8_1 + 41 X_8_2 + 53 X_8_3 + 31 X_8_4
 + 75 X_8_5 + 88 X_8_6 + 55 X_8_7 + 84 X_8_8 + 2 X_8_9 <= 0
m2_9: F2_8 - F2_9 + 35 X_9_0 + 39 X_9_1 + 41 X_9_2 + 53 X_9_3 + 31 X_9_4
 + 75 X_9_5 + 88 X_9_6 + 55 X_9_7 + 84 X_9_8 + 2 X_9_9 <= 0
row_0: X_0_0 + X_0_1 + X_0_2 + X_0_3 + X_0_4 + X_0_5 + X_0_6 + X_0_7 + X_0_8
 + X_0_9 = 1
row_1: X_1_0 + X_1_1 + X_1_2 + X_1_3 + X_1_4 + X_1_5 + X_1_6 + X_1_7 + X_1_8
 + X_1_9 = 1
row_2: X_2_0 + X_2_1 + X_2_2 + X_2_3 + X_2_4 + X_2_5 + X_2_6 + X_2_7 + X_2_8
 + X_2_9 = 1
row_3: X_3_0 + X_3_1 + X_3_2 + X_3_3 + X_3_4 + X_3_5 + X_3_6 + X_3_7 + X_3_8
 + X_3_9 = 1
row_4: X_4_0 + X_4_1 + X_4_2 + X_4_3 + X_4_4 + X_4_5 + X_4_6 + X_4_7 + X_4_8
 + X_4_9 = 1
row_5: X_5_0 + X_5_1 + X_5_2 + X_5_3 + X_5_4 + X_5_5 + X_5_6 + X_5_7 + X_5_8
 + X_5_9 = 1
row_6: X_6_0 + X_6_1 + X_6_2 + X_6_3 + X_6_4 + X_6_5 + X_6_6 + X_6_7 + X_6_8
 + X_6_9 = 1
row_7: X_7_0 + X_7_1 + X_7_2 + X_7_3 + X_7_4 + X_7_5 + X_7_6 + X_7_7 + X_7_8
 + X_7_9 = 1
row_8: X_8_0 + X_8_1 + X_8_2 + X_8_3 + X_8_4 + X_8_5 + X_8_6 + X_8_7 + X_8_8
 + X_8_9 = 1
row_9: X_9_0 + X_9_1 + X_9_2 + X_9_3 + X_9_4 + X_9_5 + X_9_6 + X_9_7 + X_9_8
 + X_9_9 = 1
tar_0: - F2_0 + G_0 + 175 X_0_0 + 266 X_0_1 + 123 X_0_2 + 323 X_0_3
 + 545 X_0_4 + 173 X_0_5 + 211 X_0_6 + 405 X_0_7 + 374 X_0_8 + 182 X_0_9 >= 0
tar_1: - F2_1 + G_1 + 175 X_1_0 + 266 X_1_1 + 123 X_1_2 + 323 X_1_3
 + 545 X_1_4 + 173 X_1_5 + 211 X_1_6 + 405 X_1_7 + 374 X_1_8 + 182 X_1_9 >= 0
tar_2: - F2_2 + G_2 + 175 X_2_0 + 266 X_2_1 + 123 X_2_2 + 323 X_2_3
 + 545 X_2_4 + 173 X_2_5 + 211 X_2_6 + 405 X_2_7 + 374 X_2_8 + 182 X_2_9 >= 0
tar_3: - F2_3 + G_3 + 175 X_3_0 + 266 X_3_1 + 123 X_3_2 + 323 X_3_3
 + 545 X_3_4 + 173 X_3_5 + 211 X_3_6 + 405 X_3_7 + 374 X_3_8 + 182 X_3_9 >= 0
tar_4: - F2_4 + G_4 + 175 X_4_0 + 266 X_4_1 + 123 X_4_2 + 323 X_4_3
 + 545 X_4_4 + 173 X_4_5 + 211 X_4_6 + 405 X_4_7 + 374 X_4_8 + 182 X_4_9 >= 0
tar_5: - F2_5 + G_5 + 175 X_5_0 + 266 X_5_1 + 123 X_5_2 + 323 X_5_3
 + 545 X_5_4 + 173 X_5_5 + 211 X_5_6 + 405 X_5_7 + 374 X_5_8 + 182 X_5_9 >= 0
tar_6: - F2_6 + G_6 + 175 X_6_0 + 266 X_6_1 + 123 X_6_2 + 323 X_6_3
 + 545 X_6_4 + 173 X_6_5 + 211 X_6_6 + 405 X_6_7 + 374 X_6_8 + 182 X_6_9 >= 0
tar_7: - F2_7 + G_7 + 175 X_7_0 + 266 X_7_1 + 123 X_7_2 + 323 X_7_3
 + 545 X_7_4 + 173 X_7_5 + 211 X_7_6 + 405 X_7_7 + 374 X_7_8 + 182 X_7_9 >= 0
tar_8: - F2_8 + G_8 + 175 X_8_0 + 266 X_8_1 + 123 X_8_2 + 323 X_8_3
 + 545 X_8_4 + 173 X_8_5 + 211 X_8_6 + 405 X_8_7 + 374 X_8_8 + 182 X_8_9 >= 0
tar_9: - F2_9 + G_9 + 175 X_9_0 + 266 X_9_1 + 123 X_9_2 + 323 X_9_3
 + 545 X_9_4 + 173 X_9_5 + 211 X_9_6 + 405 X_9_7 + 374 X_9_8 + 182 X_9_9 >= 0
Bounds
0 <= F1_0
0 <= F1_1
0 <= F1_2
0 <= F1_3
0 <= F1_4
0 <= F1_5
0 <= F1_6
0 <= F1_7
0 <= F1_8
0 <= F1_9
0 <= F2_0
0 <= F2_1
0 <= F2_2
0 <= F2_3
0 <= F2_4
0 <= F2_5
0 <= F2_6
0 <= F2_7
0 <= F2_8
0 <= F2_9
0 <= G_0
0 <= G_1
0 <= G_2
0 <= G_3
0 <= G_4
0 <= G_5
0 <= G_6
0 <= G_7
0 <= G_8
0 <= G_9
Generals
F1_0
F1_1
F1_2
F1_3
F1_4
F1_5
F1_6
F1_7
F1_8
F1_9
F2_0
F2_1
F2_2
F2_3
F2_4
F2_5
F2_6
F2_7
F2_8
F2_9
G_0
G_1
G_2
G_3
G_4
G_5
G_6
G_7
G_8
G_9
Binaries
X_0_0
X_0_1
X_0_2
X_0_3
X_0_4
X_0_5
X_0_6
X_0_7
X_0_8
X_0_9
X_1_0
X_1_1
X_1_2
X_1_3
X_1_4
X_1_5
X_1_6
X_1_7
X_1_8
X_1_9
X_2_0
X_2_1
X_2_2
X_2_3
X_2_4
X_2_5
X_2_6
X_2_7
X_2_8
X_2_9
X_3_0
X_3_1
X_3_2
X_3_3
X_3_4
X_3_5
X_3_6
X_3_7
X_3_8
X_3_9
X_4_0
X_4_1
X_4_2
X_4_3
X_4_4
X_4_5
X_4_6
X_4_7
X_4_8
X_4_9
X_5_0
X_5_1
X_5_2
X_5_3
X_5_4
X_5_5
X_5_6
X_5_7
X_5_8
X_5_9
X_6_0
X_6_1
X_6_2
X_6_3
X_6_4
X_6_5
X_6_6
X_6_7
X_6_8
X_6_9
X_7_0
X_7_1
X_7_2
X_7_3
X_7_4
X_7_5
X_7_6
X_7_7
X_7_8
X_7_9
X_8_0
X_8_1
X_8_2
X_8_3
X_8_4
X_8_5
X_8_6
X_8_7
X_8_8
X_8_9
X_9_0
X_9_1
X_9_2
X_9_3
X_9_4
X_9_5
X_9_6
X_9_7
X_9_8
X_9_9
End
